# Solution for model digestion_srl_ilp
# Objective value = 1.1838539405152289e+01
Z_689_0_0 0
Z_689_0_1 0
Z_689_0_2 1
Z_689_0_3 0
Z_689_0_4 0
Z_201_0_0 0
Z_201_0_1 0
Z_201_0_2 1
Z_201_0_3 0
Z_201_0_4 0
Z_45_0_0 0
Z_45_0_1 0
Z_45_0_2 1
Z_45_0_3 0
Z_45_0_4 0
Z_492_0_0 0
Z_492_0_1 0
Z_492_0_2 0
Z_492_0_3 0
Z_492_0_4 1
Z_492_3_0 1
Z_492_3_1 0
Z_492_3_2 0
Z_492_3_3 0
Z_492_3_4 0
Z_492_2_0 0
Z_492_2_1 0
Z_492_2_2 0
Z_492_2_3 1
Z_492_2_4 0
Z_492_1_0 0
Z_492_1_1 0
Z_492_1_2 1
Z_492_1_3 0
Z_492_1_4 0
Z_401_0_0 0
Z_401_0_1 0
Z_401_0_2 1
Z_401_0_3 0
Z_401_0_4 0
Z_130_0_0 0
Z_130_0_1 0
Z_130_0_2 1
Z_130_0_3 0
Z_130_0_4 0
Z_91_0_0 0
Z_91_0_1 0
Z_91_0_2 1
Z_91_0_3 0
Z_91_0_4 0
Z_708_0_0 0
Z_708_0_1 0
Z_708_0_2 1
Z_708_0_3 0
Z_708_0_4 0
Z_518_1_0 0
Z_518_1_1 0
Z_518_1_2 0
Z_518_1_3 0
Z_518_1_4 1
Z_518_2_0 0
Z_518_2_1 0
Z_518_2_2 0
Z_518_2_3 1
Z_518_2_4 0
Z_518_0_0 0
Z_518_0_1 0
Z_518_0_2 1
Z_518_0_3 0
Z_518_0_4 0
Z_60_0_0 0
Z_60_0_1 0
Z_60_0_2 1
Z_60_0_3 0
Z_60_0_4 0
Z_715_0_0 0
Z_715_0_1 0
Z_715_0_2 1
Z_715_0_3 0
Z_715_0_4 0
Z_744_0_0 0
Z_744_0_1 0
Z_744_0_2 1
Z_744_0_3 0
Z_744_0_4 0
